data;


param FN:= 1;
param D:= 100;
param U_Original:=
         1         1        3.188170e-01
         2         1        1.895643e+00
         3         1       -5.793676e-01
         4         1        2.300323e-01
         5         1        6.620889e-01
         6         1       -6.132796e-01
         7         1        6.582830e-01
         8         1        2.811440e-01
         9         1        4.606486e-01
        10         1        9.327042e-01
        11         1        3.733929e-01
        12         1        1.228821e+00
        13         1        2.125043e-01
        14         1        1.479154e+00
        15         1        2.314830e-01
        16         1       -7.631997e-01
        17         1        7.822849e-01
        18         1        1.704969e+00
        19         1        1.083868e+00
        20         1       -9.225157e-01
        21         1       -1.932461e-01
        22         1       -1.309015e+00
        23         1       -7.078580e-01
        24         1        1.328180e+00
        25         1       -1.344946e+00
        26         1        1.001106e-01
        27         1        4.070073e-01
        28         1        6.918550e-01
        29         1       -2.546788e-01
        30         1       -1.625012e+00
        31         1       -1.609812e-02
        32         1       -1.907814e+00
        33         1       -1.759659e+00
        34         1       -6.352143e-01
        35         1       -1.890077e-01
        36         1       -5.666689e-01
        37         1       -1.401943e+00
        38         1        1.213898e+00
        39         1        6.481749e-01
        40         1       -7.066492e-01
        41         1        2.205100e+00
        42         1       -3.010580e-01
        43         1        1.311828e+00
        44         1       -1.314643e+00
        45         1       -2.482789e-01
        46         1        1.283358e-01
        47         1        7.189304e-01
        48         1        9.558968e-02
        49         1       -1.628981e+00
        50         1       -1.395407e+00
        51         1       -3.798868e-02
        52         1       -8.621590e-01
        53         1       -5.300516e-01
        54         1       -2.233948e-01
        55         1        1.449076e-01
        56         1       -9.960764e-01
        57         1       -1.460223e+00
        58         1       -1.642803e+00
        59         1        1.003625e+00
        60         1        3.055750e-01
        61         1       -1.859223e+00
        62         1        4.302304e-01
        63         1       -8.573701e-01
        64         1       -2.073901e+00
        65         1        6.962465e-02
        66         1        5.644786e-01
        67         1        6.255790e-01
        68         1       -7.358951e-01
        69         1       -3.702888e-01
        70         1        2.607921e-01
        71         1        3.017747e-01
        72         1       -7.394840e-01
        73         1        4.870512e-01
        74         1       -5.731280e-01
        75         1       -9.721634e-01
        76         1        1.224846e-01
        77         1       -2.748028e-01
        78         1       -1.199594e-01
        79         1        6.598202e-01
        80         1       -2.153388e-03
        81         1        1.034293e+00
        82         1       -9.731025e-01
        83         1        1.669693e+00
        84         1       -7.822642e-01
        85         1       -2.219879e-01
        86         1        6.689323e-01
        87         1        2.862819e-01
        88         1        5.920530e-01
        89         1       -8.074155e-01
        90         1       -7.614224e-01
        91         1        3.337228e-01
        92         1        1.500233e+00
        93         1       -4.507302e-01
        94         1        2.457591e-01
        95         1        9.273694e-01
        96         1       -3.679685e-01
        97         1       -7.786515e-01
        98         1       -3.905492e-01
        99         1        5.394300e-01
       100         1        4.252993e-01
         1         2        1.767697e-01
         2         2       -9.471246e-01
         3         2        5.840412e-01
         4         2        8.796384e-01
         5         2        7.541578e-01
         6         2       -1.402258e+00
         7         2       -6.924802e-01
         8         2       -1.064464e+00
         9         2        1.238106e+00
        10         2        2.851916e-01
        11         2       -4.114957e-01
        12         2        1.585973e+00
        13         2       -2.705062e+00
        14         2       -1.341374e+00
        15         2       -5.227192e-01
        16         2        1.425914e+00
        17         2       -1.797707e+00
        18         2        7.950522e-01
        19         2        5.443885e-02
        20         2       -2.797805e-01
        21         2       -1.147014e+00
        22         2       -1.850738e+00
        23         2       -1.249350e+00
        24         2        2.215292e-01
        25         2        5.349515e-01
        26         2       -2.028156e-01
        27         2        2.209740e+00
        28         2        8.653380e-01
        29         2        1.392050e+00
        30         2        1.617247e+00
        31         2        3.146733e-01
        32         2       -1.273300e+00
        33         2        2.481548e+00
        34         2       -6.617478e-01
        35         2        1.350815e+00
        36         2        9.754734e-01
        37         2       -6.504855e-01
        38         2       -7.714322e-01
        39         2       -7.804138e-02
        40         2        9.416164e-01
        41         2        6.625634e-01
        42         2       -4.458567e-01
        43         2        7.617563e-01
        44         2       -5.478887e-01
        45         2       -1.197402e+00
        46         2        2.874271e-01
        47         2        1.549892e+00
        48         2       -1.846081e+00
        49         2        1.350406e+00
        50         2       -6.053962e-01
        51         2        3.008787e-02
        52         2       -5.353691e-01
        53         2        1.652780e-01
        54         2       -6.554352e-01
        55         2        8.312163e-01
        56         2        2.520713e+00
        57         2        2.903475e+00
        58         2       -1.634814e+00
        59         2       -1.131555e+00
        60         2        1.217536e+00
        61         2        2.501311e+00
        62         2        3.914742e-01
        63         2        8.327750e-01
        64         2       -5.081274e-01
        65         2        4.718572e-01
        66         2       -5.561918e-01
        67         2       -7.121046e-01
        68         2       -1.563180e+00
        69         2       -1.509559e-01
        70         2       -8.428445e-01
        71         2        4.913960e-01
        72         2        4.571821e-01
        73         2       -5.018110e-01
        74         2       -4.009602e-01
        75         2        1.869808e-01
        76         2       -8.232751e-02
        77         2       -4.724990e-01
        78         2       -7.032205e-01
        79         2        4.131357e-01
        80         2       -5.930561e-02
        81         2       -9.056072e-01
        82         2       -8.909976e-01
        83         2       -1.675897e+00
        84         2        9.426235e-02
        85         2        8.577906e-01
        86         2       -1.700204e+00
        87         2        2.780747e-01
        88         2        2.771435e-02
        89         2       -1.802784e+00
        90         2       -4.421477e-01
        91         2        2.169281e+00
        92         2        9.249392e-01
        93         2        1.981371e-01
        94         2        3.408226e-01
        95         2        3.591080e-01
        96         2        4.920910e-01
        97         2        4.541985e-01
        98         2        1.048797e+00
        99         2        1.860899e+00
       100         2        1.164727e+00
         1         3       -5.450284e-03
         2         3        1.883967e+00
         3         3       -2.994431e-01
         4         3        9.916874e-01
         5         3        2.048998e+00
         6         3        1.811198e+00
         7         3        8.307205e-01
         8         3       -1.302329e+00
         9         3       -3.152148e-01
        10         3       -6.029246e-01
        11         3        1.518208e+00
        12         3       -1.628719e+00
        13         3        1.577102e-01
        14         3       -1.848544e+00
        15         3        9.473486e-01
        16         3        6.512513e-01
        17         3       -3.729291e-01
        18         3       -7.792244e-01
        19         3       -1.972246e-01
        20         3        1.181608e+00
        21         3        1.675080e-01
        22         3       -5.202505e-01
        23         3        4.152174e-01
        24         3        2.217036e-01
        25         3       -1.242888e+00
        26         3        6.438011e-01
        27         3        4.987069e-01
        28         3        1.994435e+00
        29         3        1.789376e+00
        30         3        2.012414e-01
        31         3       -1.456820e+00
        32         3        5.576040e-01
        33         3       -8.725180e-03
        34         3        6.002853e-01
        35         3        2.368642e+00
        36         3       -1.870785e-02
        37         3       -1.733251e-01
        38         3        9.309805e-02
        39         3        1.187247e+00
        40         3        2.961596e-01
        41         3       -4.295579e-01
        42         3       -7.951802e-01
        43         3       -9.244750e-01
        44         3       -6.499863e-01
        45         3       -1.509636e-01
        46         3       -4.823053e-01
        47         3        9.575378e-01
        48         3       -1.570747e+00
        49         3       -1.163777e+00
        50         3       -9.006129e-01
        51         3       -6.082019e-01
        52         3       -1.573558e+00
        53         3        3.612609e-01
        54         3        1.684049e-01
        55         3       -6.272925e-01
        56         3        9.523574e-01
        57         3       -1.077204e+00
        58         3       -5.284043e-01
        59         3       -4.323300e-01
        60         3       -7.871215e-01
        61         3       -3.150311e-01
        62         3        9.780244e-01
        63         3       -3.092600e-01
        64         3        9.052987e-01
        65         3       -9.906596e-01
        66         3        4.286928e-01
        67         3        8.720978e-01
        68         3       -1.072229e+00
        69         3       -5.098023e-01
        70         3        1.377372e+00
        71         3       -1.228130e+00
        72         3       -1.316893e+00
        73         3        1.534601e+00
        74         3       -7.790842e-01
        75         3       -4.343270e-02
        76         3        1.637895e+00
        77         3       -1.036514e+00
        78         3        1.103008e+00
        79         3       -1.279300e+00
        80         3        1.248080e+00
        81         3        3.134648e-01
        82         3        5.658819e-01
        83         3        6.204788e-01
        84         3       -2.526364e-01
        85         3       -2.049414e-01
        86         3       -4.199990e-01
        87         3        1.644209e+00
        88         3        1.807153e+00
        89         3       -2.268537e+00
        90         3        8.285603e-01
        91         3       -3.987253e-01
        92         3       -1.046996e+00
        93         3       -8.645429e-01
        94         3        1.091413e+00
        95         3       -8.031748e-01
        96         3        1.545116e+00
        97         3       -1.001937e+00
        98         3       -1.462848e+00
        99         3        1.189840e+00
       100         3       -1.653443e-01
         1         4        2.346150e-01
         2         4       -5.807793e-01
         3         4        6.791300e-01
         4         4        3.823385e-01
         5         4        9.716180e-01
         6         4       -9.118426e-01
         7         4        1.165373e+00
         8         4        1.464829e+00
         9         4        7.503542e-01
        10         4       -2.030394e+00
        11         4        1.922430e-01
        12         4       -6.906849e-01
        13         4       -1.195833e+00
        14         4        2.039365e-01
        15         4       -3.113178e-02
        16         4        5.838632e-01
        17         4        2.649968e+00
        18         4        3.212738e-01
        19         4        2.294494e+00
        20         4        3.394175e-01
        21         4       -1.417437e+00
        22         4        1.949378e+00
        23         4       -2.953888e-01
        24         4        1.787881e+00
        25         4       -9.018194e-01
        26         4       -3.442389e-01
        27         4        3.214010e-01
        28         4        6.615610e-02
        29         4       -7.627660e-01
        30         4       -9.718374e-01
        31         4       -1.249127e-01
        32         4        2.471162e-01
        33         4        5.242714e-01
        34         4       -1.610490e+00
        35         4       -2.043204e-01
        36         4       -2.319909e+00
        37         4        1.468038e+00
        38         4        2.336777e-01
        39         4       -4.551125e-01
        40         4       -1.068139e-01
        41         4       -5.284159e-01
        42         4       -9.174866e-01
        43         4       -1.886144e-01
        44         4       -4.332576e-02
        45         4        6.265687e-01
        46         4       -6.703856e-01
        47         4       -2.519561e-02
        48         4        5.633576e-01
        49         4        9.443488e-01
        50         4       -6.867069e-01
        51         4        5.776586e-01
        52         4        9.951663e-01
        53         4       -4.268603e-01
        54         4       -7.073650e-01
        55         4        8.321532e-01
        56         4       -9.631538e-01
        57         4        6.854917e-02
        58         4       -9.603642e-01
        59         4        1.619326e+00
        60         4       -7.474613e-01
        61         4        2.527639e-01
        62         4       -4.004126e-02
        63         4       -2.432877e-01
        64         4        1.316608e+00
        65         4        1.232908e+00
        66         4       -4.778825e-01
        67         4        5.467177e-02
        68         4       -2.722409e-02
        69         4       -4.777243e-02
        70         4        1.219590e+00
        71         4        1.071734e-01
        72         4        3.387755e-01
        73         4        7.193375e-02
        74         4        8.235002e-01
        75         4        9.929576e-01
        76         4        1.025338e+00
        77         4       -3.180217e-01
        78         4       -9.666871e-01
        79         4       -5.263404e-01
        80         4        5.139197e-01
        81         4        2.758579e-01
        82         4        1.938893e+00
        83         4       -1.954158e-01
        84         4       -5.005100e-01
        85         4       -1.864809e+00
        86         4        6.204854e-01
        87         4       -9.326361e-01
        88         4       -1.918068e+00
        89         4        2.388057e+00
        90         4        8.474064e-01
        91         4        3.823983e-02
        92         4       -1.878691e-01
        93         4       -3.503212e-01
        94         4        2.580624e+00
        95         4        2.632652e-01
        96         4        1.591360e+00
        97         4       -2.122006e-01
        98         4       -1.348989e+00
        99         4       -5.962150e-01
       100         4       -3.574741e-01
         1         5        1.484925e-01
         2         5        1.526441e+00
         3         5       -1.103292e+00
         4         5        1.306221e+00
         5         5        1.742836e+00
         6         5       -1.428749e-01
         7         5       -9.663011e-01
         8         5        4.724830e-01
         9         5       -2.209142e-01
        10         5        2.047345e-01
        11         5        7.560246e-01
        12         5       -1.404834e+00
        13         5       -8.767630e-01
        14         5       -1.119633e-01
        15         5        1.594934e-01
        16         5        1.664495e+00
        17         5       -1.177059e+00
        18         5        1.602454e+00
        19         5        1.188231e+00
        20         5        3.920902e-01
        21         5       -1.341457e-01
        22         5       -2.414123e-01
        23         5       -1.846455e+00
        24         5        3.894377e-01
        25         5       -1.648291e+00
        26         5       -5.836613e-02
        27         5        1.292397e+00
        28         5       -1.756044e+00
        29         5        4.428965e-01
        30         5        1.138604e+00
        31         5       -4.835297e-01
        32         5       -2.231084e-01
        33         5        2.202310e-01
        34         5        8.027157e-01
        35         5       -2.433240e-01
        36         5       -4.647428e-01
        37         5        6.447621e-01
        38         5        2.049646e+00
        39         5       -1.217184e+00
        40         5        3.632334e-01
        41         5       -1.413110e+00
        42         5       -2.449698e-01
        43         5       -1.980442e+00
        44         5        2.334990e-01
        45         5        5.815916e-01
        46         5        2.138879e-01
        47         5       -4.361793e-01
        48         5        5.847721e-01
        49         5        5.971639e-01
        50         5        3.770288e-01
        51         5        9.957838e-01
        52         5        1.537815e+00
        53         5        5.374822e-02
        54         5       -1.553539e-01
        55         5        3.065118e-01
        56         5       -7.957347e-01
        57         5        2.174716e-01
        58         5       -7.712696e-01
        59         5       -5.817761e-01
        60         5        1.427994e-02
        61         5        1.526124e+00
        62         5       -9.663042e-02
        63         5       -1.207074e+00
        64         5       -6.414713e-01
        65         5        1.505209e+00
        66         5        1.481332e+00
        67         5       -1.556829e+00
        68         5        1.553005e+00
        69         5       -1.378037e+00
        70         5        7.563607e-01
        71         5       -1.707866e-01
        72         5        7.207862e-01
        73         5        2.495307e-01
        74         5       -6.626232e-01
        75         5        8.156731e-01
        76         5       -6.858697e-01
        77         5       -7.548084e-01
        78         5        6.756078e-01
        79         5        2.551383e-01
        80         5       -2.060009e-01
        81         5       -1.274331e+00
        82         5        4.851221e-01
        83         5       -5.100726e-02
        84         5        1.659858e+00
        85         5       -1.619639e+00
        86         5       -2.496108e+00
        87         5       -3.082229e-01
        88         5       -1.594200e-01
        89         5        4.014064e-01
        90         5        2.221871e-01
        91         5       -4.748751e-02
        92         5        3.184640e-01
        93         5       -2.014938e-02
        94         5       -1.009541e+00
        95         5        8.668908e-02
        96         5        8.339740e-01
        97         5       -1.574271e-01
        98         5       -2.567213e-01
        99         5       -2.494669e-01
       100         5       -8.562083e-01
;
param X_Original:=
    1        4.752068e-01
    2       -4.208850e-02
    3        3.742063e-01
    4       -9.939120e-02
    5       -2.050933e+00
    6        1.896432e+00
    7       -7.881763e-01
    8        2.139907e+00
    9       -1.100453e+00
   10        8.288506e-01
   11       -1.748549e-01
   12        3.829580e-01
   13        1.806770e+00
   14        5.419550e-01
   15       -8.540118e-01
   16        2.330409e-01
   17        2.802157e-01
   18        1.336219e-01
   19        1.203823e+00
   20       -6.680803e-01
   21        6.630562e-01
   22       -5.438785e-01
   23       -8.235157e-02
   24       -5.032737e-01
   25        2.396794e-01
   26        6.744556e-01
   27       -7.609653e-01
   28       -1.038745e+00
   29        8.585880e-01
   30        1.172806e+00
   31       -5.937167e-01
   32       -1.274241e-01
   33        1.005419e+00
   34       -4.391057e+00
   35        4.687832e-02
   36       -4.890311e-02
   37       -1.200067e+00
   38        9.931740e-01
   39        9.526474e-01
   40       -1.648159e+00
   41       -1.223747e+00
   42       -2.245772e+00
   43        2.104231e-02
   44        1.474571e+00
   45       -5.844129e-02
   46        7.116934e-02
   47       -6.619083e-01
   48       -1.253283e+00
   49        2.304627e-01
   50       -2.931896e+00
   51        8.543249e-01
   52        1.909312e+00
   53       -1.201883e+00
   54        9.651087e-01
   55       -1.182304e+00
   56       -4.242099e-01
   57        1.424272e+00
   58        2.732369e-01
   59        9.878229e-01
   60        1.635929e-01
   61        1.560330e+00
   62        1.403464e+00
   63        3.716608e-01
   64       -1.806483e+00
   65        8.990074e-01
   66       -1.399328e+00
   67        1.006265e+00
   68        2.330828e+00
   69       -8.937673e-01
   70       -1.398623e-01
   71       -7.074043e-01
   72        1.637284e+00
   73       -3.203073e-02
   74       -2.937423e-01
   75       -3.511749e-01
   76        4.801921e-01
   77       -1.791837e-01
   78        2.851760e-01
   79       -3.581715e-01
   80        2.937577e-01
   81       -3.775787e-02
   82        5.003977e-01
   83        2.383675e-01
   84       -1.190355e+00
   85       -2.509082e+00
   86       -9.468977e-01
   87        2.019144e-02
   88       -2.026185e-01
   89       -6.229657e-01
   90        5.713109e-01
   91        4.587083e-01
   92       -1.707168e+00
   93        1.744513e+00
   94        1.445234e+00
   95        3.435189e+00
   96        4.563849e-01
   97        1.867907e-01
   98        1.597065e+00
   99        8.228550e-01
  100        5.960272e-01
;
param outliervec_original :=
    1    1
    2    1
    3    1
    4    1
    5    1
    6    1
    7    1
    8    1
    9    1
   10    1
   11    1
   12    1
   13    1
   14    0
   15    1
   16    1
   17    1
   18    1
   19    1
   20    1
   21    1
   22    1
   23    1
   24    1
   25    1
   26    1
   27    1
   28    1
   29    1
   30    1
   31    1
   32    1
   33    1
   34    0
   35    1
   36    1
   37    1
   38    1
   39    1
   40    1
   41    1
   42    0
   43    1
   44    1
   45    0
   46    1
   47    1
   48    1
   49    1
   50    0
   51    1
   52    1
   53    0
   54    1
   55    1
   56    0
   57    0
   58    1
   59    1
   60    1
   61    1
   62    1
   63    1
   64    1
   65    1
   66    1
   67    1
   68    1
   69    1
   70    1
   71    1
   72    1
   73    0
   74    1
   75    1
   76    1
   77    1
   78    1
   79    1
   80    1
   81    1
   82    1
   83    1
   84    1
   85    0
   86    1
   87    1
   88    1
   89    1
   90    0
   91    1
   92    1
   93    1
   94    1
   95    1
   96    1
   97    1
   98    1
   99    0
  100    1
;
param d:= 56;
param r:=5;
param p:=0.880000;
param M:=1000;
param U:=
         1         1        3.188170e-01
         2         1        1.895643e+00
         3         1       -5.793676e-01
         4         1        2.811440e-01
         5         1        3.733929e-01
         6         1        1.479154e+00
         7         1        2.314830e-01
         8         1       -7.631997e-01
         9         1       -9.225157e-01
        10         1       -1.309015e+00
        11         1       -2.546788e-01
        12         1       -1.609812e-02
        13         1       -1.759659e+00
        14         1       -6.352143e-01
        15         1       -1.890077e-01
        16         1       -1.401943e+00
        17         1        1.213898e+00
        18         1        6.481749e-01
        19         1       -3.010580e-01
        20         1       -2.482789e-01
        21         1        1.283358e-01
        22         1        9.558968e-02
        23         1       -1.628981e+00
        24         1       -1.395407e+00
        25         1       -3.798868e-02
        26         1       -5.300516e-01
        27         1       -9.960764e-01
        28         1       -1.460223e+00
        29         1        1.003625e+00
        30         1        3.055750e-01
        31         1       -1.859223e+00
        32         1        4.302304e-01
        33         1       -8.573701e-01
        34         1       -2.073901e+00
        35         1        6.962465e-02
        36         1        5.644786e-01
        37         1       -3.702888e-01
        38         1        2.607921e-01
        39         1        4.870512e-01
        40         1       -5.731280e-01
        41         1       -9.721634e-01
        42         1        1.224846e-01
        43         1       -2.748028e-01
        44         1       -2.153388e-03
        45         1        1.034293e+00
        46         1       -9.731025e-01
        47         1        1.669693e+00
        48         1       -7.822642e-01
        49         1       -2.219879e-01
        50         1        6.689323e-01
        51         1        2.862819e-01
        52         1       -8.074155e-01
        53         1        9.273694e-01
        54         1       -7.786515e-01
        55         1        5.394300e-01
        56         1        4.252993e-01
         1         2        1.767697e-01
         2         2       -9.471246e-01
         3         2        5.840412e-01
         4         2       -1.064464e+00
         5         2       -4.114957e-01
         6         2       -1.341374e+00
         7         2       -5.227192e-01
         8         2        1.425914e+00
         9         2       -2.797805e-01
        10         2       -1.850738e+00
        11         2        1.392050e+00
        12         2        3.146733e-01
        13         2        2.481548e+00
        14         2       -6.617478e-01
        15         2        1.350815e+00
        16         2       -6.504855e-01
        17         2       -7.714322e-01
        18         2       -7.804138e-02
        19         2       -4.458567e-01
        20         2       -1.197402e+00
        21         2        2.874271e-01
        22         2       -1.846081e+00
        23         2        1.350406e+00
        24         2       -6.053962e-01
        25         2        3.008787e-02
        26         2        1.652780e-01
        27         2        2.520713e+00
        28         2        2.903475e+00
        29         2       -1.131555e+00
        30         2        1.217536e+00
        31         2        2.501311e+00
        32         2        3.914742e-01
        33         2        8.327750e-01
        34         2       -5.081274e-01
        35         2        4.718572e-01
        36         2       -5.561918e-01
        37         2       -1.509559e-01
        38         2       -8.428445e-01
        39         2       -5.018110e-01
        40         2       -4.009602e-01
        41         2        1.869808e-01
        42         2       -8.232751e-02
        43         2       -4.724990e-01
        44         2       -5.930561e-02
        45         2       -9.056072e-01
        46         2       -8.909976e-01
        47         2       -1.675897e+00
        48         2        9.426235e-02
        49         2        8.577906e-01
        50         2       -1.700204e+00
        51         2        2.780747e-01
        52         2       -1.802784e+00
        53         2        3.591080e-01
        54         2        4.541985e-01
        55         2        1.860899e+00
        56         2        1.164727e+00
         1         3       -5.450284e-03
         2         3        1.883967e+00
         3         3       -2.994431e-01
         4         3       -1.302329e+00
         5         3        1.518208e+00
         6         3       -1.848544e+00
         7         3        9.473486e-01
         8         3        6.512513e-01
         9         3        1.181608e+00
        10         3       -5.202505e-01
        11         3        1.789376e+00
        12         3       -1.456820e+00
        13         3       -8.725180e-03
        14         3        6.002853e-01
        15         3        2.368642e+00
        16         3       -1.733251e-01
        17         3        9.309805e-02
        18         3        1.187247e+00
        19         3       -7.951802e-01
        20         3       -1.509636e-01
        21         3       -4.823053e-01
        22         3       -1.570747e+00
        23         3       -1.163777e+00
        24         3       -9.006129e-01
        25         3       -6.082019e-01
        26         3        3.612609e-01
        27         3        9.523574e-01
        28         3       -1.077204e+00
        29         3       -4.323300e-01
        30         3       -7.871215e-01
        31         3       -3.150311e-01
        32         3        9.780244e-01
        33         3       -3.092600e-01
        34         3        9.052987e-01
        35         3       -9.906596e-01
        36         3        4.286928e-01
        37         3       -5.098023e-01
        38         3        1.377372e+00
        39         3        1.534601e+00
        40         3       -7.790842e-01
        41         3       -4.343270e-02
        42         3        1.637895e+00
        43         3       -1.036514e+00
        44         3        1.248080e+00
        45         3        3.134648e-01
        46         3        5.658819e-01
        47         3        6.204788e-01
        48         3       -2.526364e-01
        49         3       -2.049414e-01
        50         3       -4.199990e-01
        51         3        1.644209e+00
        52         3       -2.268537e+00
        53         3       -8.031748e-01
        54         3       -1.001937e+00
        55         3        1.189840e+00
        56         3       -1.653443e-01
         1         4        2.346150e-01
         2         4       -5.807793e-01
         3         4        6.791300e-01
         4         4        1.464829e+00
         5         4        1.922430e-01
         6         4        2.039365e-01
         7         4       -3.113178e-02
         8         4        5.838632e-01
         9         4        3.394175e-01
        10         4        1.949378e+00
        11         4       -7.627660e-01
        12         4       -1.249127e-01
        13         4        5.242714e-01
        14         4       -1.610490e+00
        15         4       -2.043204e-01
        16         4        1.468038e+00
        17         4        2.336777e-01
        18         4       -4.551125e-01
        19         4       -9.174866e-01
        20         4        6.265687e-01
        21         4       -6.703856e-01
        22         4        5.633576e-01
        23         4        9.443488e-01
        24         4       -6.867069e-01
        25         4        5.776586e-01
        26         4       -4.268603e-01
        27         4       -9.631538e-01
        28         4        6.854917e-02
        29         4        1.619326e+00
        30         4       -7.474613e-01
        31         4        2.527639e-01
        32         4       -4.004126e-02
        33         4       -2.432877e-01
        34         4        1.316608e+00
        35         4        1.232908e+00
        36         4       -4.778825e-01
        37         4       -4.777243e-02
        38         4        1.219590e+00
        39         4        7.193375e-02
        40         4        8.235002e-01
        41         4        9.929576e-01
        42         4        1.025338e+00
        43         4       -3.180217e-01
        44         4        5.139197e-01
        45         4        2.758579e-01
        46         4        1.938893e+00
        47         4       -1.954158e-01
        48         4       -5.005100e-01
        49         4       -1.864809e+00
        50         4        6.204854e-01
        51         4       -9.326361e-01
        52         4        2.388057e+00
        53         4        2.632652e-01
        54         4       -2.122006e-01
        55         4       -5.962150e-01
        56         4       -3.574741e-01
         1         5        1.484925e-01
         2         5        1.526441e+00
         3         5       -1.103292e+00
         4         5        4.724830e-01
         5         5        7.560246e-01
         6         5       -1.119633e-01
         7         5        1.594934e-01
         8         5        1.664495e+00
         9         5        3.920902e-01
        10         5       -2.414123e-01
        11         5        4.428965e-01
        12         5       -4.835297e-01
        13         5        2.202310e-01
        14         5        8.027157e-01
        15         5       -2.433240e-01
        16         5        6.447621e-01
        17         5        2.049646e+00
        18         5       -1.217184e+00
        19         5       -2.449698e-01
        20         5        5.815916e-01
        21         5        2.138879e-01
        22         5        5.847721e-01
        23         5        5.971639e-01
        24         5        3.770288e-01
        25         5        9.957838e-01
        26         5        5.374822e-02
        27         5       -7.957347e-01
        28         5        2.174716e-01
        29         5       -5.817761e-01
        30         5        1.427994e-02
        31         5        1.526124e+00
        32         5       -9.663042e-02
        33         5       -1.207074e+00
        34         5       -6.414713e-01
        35         5        1.505209e+00
        36         5        1.481332e+00
        37         5       -1.378037e+00
        38         5        7.563607e-01
        39         5        2.495307e-01
        40         5       -6.626232e-01
        41         5        8.156731e-01
        42         5       -6.858697e-01
        43         5       -7.548084e-01
        44         5       -2.060009e-01
        45         5       -1.274331e+00
        46         5        4.851221e-01
        47         5       -5.100726e-02
        48         5        1.659858e+00
        49         5       -1.619639e+00
        50         5       -2.496108e+00
        51         5       -3.082229e-01
        52         5        4.014064e-01
        53         5        8.668908e-02
        54         5       -1.574271e-01
        55         5       -2.494669e-01
        56         5       -8.562083e-01
;

param theta:=
    1        7.168277e-01
    2        8.430916e-01
    3       -8.155370e-02
    4        1.983925e+00
    5       -3.737469e-01
;
param X_true:=
    1        7.064926e-01
    2       -1.108242e+00
    3        1.868149e+00
    4        2.092780e+00
    5       -1.529404e-01
    6        5.419550e-01
    7       -5.166201e-01
    8        1.165502e+00
    9       -4.936328e-01
   10        1.359359e+00
   11       -8.727809e-01
   12        3.023518e-01
   13        1.722581e+00
   14       -4.391057e+00
   15        5.627345e-01
   16        1.140735e+00
   17       -1.095478e-01
   18       -7.384287e-02
   19       -2.245772e+00
   20       -5.844129e-02
   21       -1.078398e+00
   22       -6.093504e-01
   23        1.722613e+00
   24       -2.931896e+00
   25        7.391743e-01
   26       -1.201883e+00
   27       -4.242099e-01
   28        1.424272e+00
   29        3.246861e+00
   30       -1.320113e-01
   31        7.293752e-01
   32        4.994234e-01
   33        7.133215e-02
   34        9.249819e-01
   35        2.609474e+00
   36       -1.682085e+00
   37        1.339393e-01
   38        1.488621e+00
   39       -3.203073e-02
   40        1.302098e+00
   41        9.851692e-01
   42        2.364142e+00
   43       -8.863649e-01
   44        9.659568e-01
   45        1.038323e+00
   46        2.394336e+00
   47       -6.361468e-01
   48       -2.128136e+00
   49       -2.509082e+00
   50        1.145550e+00
   51       -1.339234e+00
   52        2.776094e+00
   53        1.701359e+00
   54       -4.648788e-01
   55        8.228550e-01
   56        8.899892e-01
;
param X:=
    1        4.752068e-01
    2       -4.208850e-02
    3        3.742063e-01
    4        2.139907e+00
    5       -1.748549e-01
    6        5.419550e-01
    7       -8.540118e-01
    8        2.330409e-01
    9       -6.680803e-01
   10       -5.438785e-01
   11        8.585880e-01
   12       -5.937167e-01
   13        1.005419e+00
   14       -4.391057e+00
   15        4.687832e-02
   16       -1.200067e+00
   17        9.931740e-01
   18        9.526474e-01
   19       -2.245772e+00
   20       -5.844129e-02
   21        7.116934e-02
   22       -1.253283e+00
   23        2.304627e-01
   24       -2.931896e+00
   25        8.543249e-01
   26       -1.201883e+00
   27       -4.242099e-01
   28        1.424272e+00
   29        9.878229e-01
   30        1.635929e-01
   31        1.560330e+00
   32        1.403464e+00
   33        3.716608e-01
   34       -1.806483e+00
   35        8.990074e-01
   36       -1.399328e+00
   37       -8.937673e-01
   38       -1.398623e-01
   39       -3.203073e-02
   40       -2.937423e-01
   41       -3.511749e-01
   42        4.801921e-01
   43       -1.791837e-01
   44        2.937577e-01
   45       -3.775787e-02
   46        5.003977e-01
   47        2.383675e-01
   48       -1.190355e+00
   49       -2.509082e+00
   50       -9.468977e-01
   51        2.019144e-02
   52       -6.229657e-01
   53        3.435189e+00
   54        1.867907e-01
   55        8.228550e-01
   56        5.960272e-01
;
param outliervec:=
    1    1
    2    1
    3    1
    4    1
    5    1
    6    0
    7    1
    8    1
    9    1
   10    1
   11    1
   12    1
   13    1
   14    0
   15    1
   16    1
   17    1
   18    1
   19    0
   20    0
   21    1
   22    1
   23    1
   24    0
   25    1
   26    0
   27    0
   28    0
   29    1
   30    1
   31    1
   32    1
   33    1
   34    1
   35    1
   36    1
   37    1
   38    1
   39    0
   40    1
   41    1
   42    1
   43    1
   44    1
   45    1
   46    1
   47    1
   48    1
   49    0
   50    1
   51    1
   52    1
   53    1
   54    1
   55    0
   56    1
; 
param greedy_time :=         8.384790e-01
;